0 0
3 0
5 1
-1 -1
4 3
-1 -1
-1 -1
-1 -1
2 1
-1 -1
6 1
1 0
10 0
7 3
-1 -1
9 3
-1 -1
1 1
2 0
4 0
5 0
0 4
9 0
8 0
17 4
11 0
-1 -1
-1 -1
6 0
7 0
3 1
12 0
13 0
-1 -1
6 3
18 0
-1 -1
-1 -1
20 4
14 0
22 0
17 0
24 0
-1 -1
15 0
-1 -1
-1 -1
7 1
16 0
19 0
1 6
2 4
20 0
8 1
13 7
21 0
9 1
-1 -1
23 0
-1 -1
11 1
25 0
3 4
-1 -1
26 0
27 0
0 6
-1 -1
28 0
29 0
30 0
5 4
31 0
-1 -1
11 6
32 0
33 0
-1 -1
34 0
2 2
-1 -1
-1 -1
35 0
10 1
36 0
37 0
-1 -1
7 4
38 0
14 1
39 0
40 0
41 0
-1 -1
42 0
-1 -1
-1 -1
13 1
-1 -1
43 0
-1 -1
-1 -1
44 0
8 6
29 6
1 3
12 1
-1 -1
-1 -1
16 1
-1 -1
15 1
19 1
21 4
1 4
18 4
10 7
10 2
11 7
23 1
15 3
4 1
27 2
-1 -1
8 4
5 3
-1 -1
-1 -1
-1 -1
22 1
-1 -1
25 1
0 1
14 3
20 7
12 6
-1 -1
6 6
26 1
21 1
-1 -1
31 3
24 4
19 4
18 3
18 1
-1 -1
-1 -1
-1 -1
14 4
16 4
28 1
36 1
3 7
-1 -1
27 1
24 1
17 1
37 1
32 1
20 1
-1 -1
29 1
30 1
-1 -1
40 1
-1 -1
-1 -1
-1 -1
5 6
-1 -1
0 3
33 1
9 6
26 4
-1 -1
34 7
23 6
30 7
31 1
32 3
38 3
35 1
-1 -1
13 6
38 1
36 7
-1 -1
-1 -1
34 1
39 1
19 7
42 1
-1 -1
-1 -1
44 1
-1 -1
43 1
28 3
41 1
16 2
12 4
15 2
-1 -1
42 6
-1 -1
-1 -1
33 6
-1 -1
30 3
25 4
-1 -1
7 7
-1 -1
-1 -1
10 4
-1 -1
28 4
8 7
21 3
40 7
37 4
35 2
-1 -1
-1 -1
11 2
27 3
-1 -1
3 2
43 4
-1 -1
-1 -1
-1 -1
-1 -1
-1 -1
2 7
-1 -1
39 3
33 7
13 4
-1 -1
-1 -1
-1 -1
41 3
36 2
16 3
-1 -1
23 3
12 2
3 6
18 2
-1 -1
22 7
-1 -1
-1 -1
43 2
-1 -1
14 2
38 2
30 4
41 2
26 6
2 3
20 2
-1 -1
9 2
-1 -1
-1 -1
4 2
25 2
17 6
-1 -1
22 2
17 3
-1 -1
1 2
13 3
-1 -1
32 2
29 3
37 3
-1 -1
-1 -1
40 6
-1 -1
7 2
-1 -1
15 7
-1 -1
-1 -1
-1 -1
28 2
25 3
-1 -1
-1 -1
17 2
-1 -1
44 4
-1 -1
-1 -1
-1 -1
43 3
29 7
-1 -1
27 4
-1 -1
-1 -1
-1 -1
-1 -1
-1 -1
-1 -1
8 2
44 2
4 6
-1 -1
-1 -1
-1 -1
9 4
37 2
-1 -1
-1 -1
-1 -1
-1 -1
-1 -1
-1 -1
39 2
-1 -1
42 3
-1 -1
34 2
-1 -1
0 2
-1 -1
-1 -1
11 4
31 4
-1 -1
-1 -1
-1 -1
-1 -1
-1 -1
-1 -1
-1 -1
-1 -1
36 3
3 3
-1 -1
39 4
-1 -1
22 3
8 3
35 4
-1 -1
-1 -1
-1 -1
-1 -1
-1 -1
-1 -1
32 4
-1 -1
31 2
-1 -1
-1 -1
-1 -1
23 4
-1 -1
-1 -1
17 8
-1 -1
38 5
-1 -1
25 5
-1 -1
-1 -1
-1 -1
-1 -1
21 6
-1 -1
14 7
-1 -1
-1 -1
-1 -1
-1 -1
15 6
35 7
-1 -1
-1 -1
-1 -1
-1 -1
6 2
41 4
-1 -1
-1 -1
-1 -1
-1 -1
44 3
16 6
-1 -1
-1 -1
43 7
